\ Model MIPOptConstrHS
\ LP format - for model browsing. Use MPS format to capture full model detail.
Minimize
  2 x[0] + 2 x[1] + 3 x[2] + 3 x[3] + 3 x[4] + 3 x[5] + x[6] + 3 x[7]
   + 4 x[8] + 2 x[9] + 1e+100 x[10] + 1e+100 x[11] + 1e+100 x[12]
   + 1e+100 x[13] + 1e+100 x[14] + 1e+100 x[15] + 1e+100 x[16]
   + 1e+100 x[17] + 1e+100 x[18] + 1e+100 x[19] + 1e+100 x[20]
   + 1e+100 x[21] + 1e+100 x[22] + 1e+100 x[23] + 1e+100 x[24]
   + 1e+100 x[25] + 1e+100 x[26] + 1e+100 x[27] + 1e+100 x[28]
   + 1e+100 x[29] + 1e+100 x[30] + x[31] + 1e+100 x[32] + 1e+100 x[33]
   + 1e+100 x[55]
Subject To
 R0: x[34] + x[35] + x[36] + x[37] + x[38] + x[39] + x[40] + x[41] + x[42]
   + x[43] + x[44] + x[45] + x[46] + x[47] + x[48] + x[49] + x[50] + x[51]
   + x[52] + x[53] + x[54] + x[55] + x[56] + x[57] = 1
 R1: x[0] + x[1] + x[2] + x[3] + x[4] + x[5] + x[6] + x[7] + x[8] + x[9]
   >= 1
 R2: x[6] + x[10] + x[18] + x[31] + x[33] + x[35] + x[36] + x[37] + x[38]
   + x[39] + x[40] + x[41] + x[43] + x[44] + x[45] + x[46] + x[47] + x[48]
   + x[49] + x[50] + x[51] + x[52] + x[53] + x[54] + x[56] >= 1
 R3: x[6] + x[10] + x[11] + x[18] + x[31] + x[32] + x[33] + x[36] + x[37]
   + x[38] + x[39] + x[40] + x[41] + x[43] + x[44] + x[45] + x[46] + x[47]
   + x[48] + x[49] + x[50] + x[51] + x[52] + x[53] + x[54] >= 1
 R4: x[6] + x[18] + x[31] + x[33] + x[34] + x[35] + x[36] + x[37] + x[38]
   + x[39] + x[40] + x[41] + x[43] + x[44] + x[45] + x[46] + x[47] + x[48]
   + x[49] + x[50] + x[51] + x[52] + x[53] + x[54] + x[56] >= 1
 R5: x[6] + x[10] + x[11] + x[18] + x[31] + x[32] + x[33] + x[36] + x[37]
   + x[38] + x[39] + x[40] + x[41] + x[43] + x[44] + x[45] + x[46] + x[47]
   + x[48] + x[49] + x[50] + x[51] + x[52] + x[53] + x[54] >= 1
 R6: x[6] + x[18] + x[31] + x[33] + x[34] + x[35] + x[36] + x[37] + x[38]
   + x[39] + x[40] + x[41] + x[43] + x[44] + x[45] + x[46] + x[47] + x[48]
   + x[49] + x[50] + x[51] + x[52] + x[53] + x[54] + x[56] >= 1
 R7: x[1] + x[13] + x[34] + x[35] + x[36] + x[38] + x[39] + x[40] + x[41]
   + x[42] + x[43] + x[44] + x[45] + x[46] + x[47] + x[48] + x[49] + x[50]
   + x[51] + x[52] + x[53] + x[54] + x[55] + x[56] + x[57] >= 1
 R8: x[4] + x[16] + x[34] + x[35] + x[36] + x[37] + x[38] + x[39] + x[41]
   + x[42] + x[43] + x[44] + x[45] + x[46] + x[47] + x[48] + x[49] + x[50]
   + x[51] + x[52] + x[53] + x[54] + x[55] + x[56] + x[57] >= 1
 R9: x[3] + x[15] + x[34] + x[35] + x[36] + x[37] + x[38] + x[40] + x[41]
   + x[42] + x[43] + x[44] + x[45] + x[46] + x[47] + x[48] + x[49] + x[50]
   + x[51] + x[52] + x[53] + x[54] + x[55] + x[56] + x[57] >= 1
 R10: x[5] + x[17] + x[34] + x[35] + x[36] + x[37] + x[38] + x[39] + x[40]
   + x[42] + x[43] + x[44] + x[45] + x[46] + x[47] + x[48] + x[49] + x[50]
   + x[51] + x[52] + x[53] + x[54] + x[55] + x[56] + x[57] >= 1
 R11: x[2] + x[14] + x[34] + x[35] + x[36] + x[37] + x[39] + x[40] + x[41]
   + x[42] + x[43] + x[44] + x[45] + x[46] + x[47] + x[48] + x[49] + x[50]
   + x[51] + x[52] + x[53] + x[54] + x[55] + x[56] + x[57] >= 1
 R12: x[8] + x[20] + x[34] + x[35] + x[36] + x[37] + x[38] + x[39] + x[40]
   + x[41] + x[42] + x[43] + x[45] + x[46] + x[47] + x[48] + x[49] + x[50]
   + x[51] + x[52] + x[53] + x[54] + x[55] + x[56] + x[57] >= 1
 R13: x[0] + x[12] + x[34] + x[35] + x[37] + x[38] + x[39] + x[40] + x[41]
   + x[42] + x[43] + x[44] + x[45] + x[46] + x[47] + x[48] + x[49] + x[50]
   + x[51] + x[52] + x[53] + x[54] + x[55] + x[56] + x[57] >= 1
 R14: x[7] + x[19] + x[34] + x[35] + x[36] + x[37] + x[38] + x[39] + x[40]
   + x[41] + x[42] + x[44] + x[45] + x[46] + x[47] + x[48] + x[49] + x[50]
   + x[51] + x[52] + x[53] + x[54] + x[55] + x[56] + x[57] >= 1
Bounds
Binaries
 x[0] x[1] x[2] x[3] x[4] x[5] x[6] x[7] x[8] x[9] x[10] x[11] x[12] x[13]
 x[14] x[15] x[16] x[17] x[18] x[19] x[20] x[21] x[22] x[23] x[24] x[25]
 x[26] x[27] x[28] x[29] x[30] x[31] x[32] x[33] x[34] x[35] x[36] x[37]
 x[38] x[39] x[40] x[41] x[42] x[43] x[44] x[45] x[46] x[47] x[48] x[49]
 x[50] x[51] x[52] x[53] x[54] x[55] x[56] x[57]
End
